c Reduced graph for 2-FullIns_5_1 generated by Cyril Grelier
p edge 92 551
e 1 5
e 1 11
e 1 13
e 1 25
e 1 26
e 1 27
e 1 28
e 1 29
e 1 31
e 1 45
e 1 46
e 1 47
e 1 48
e 1 49
e 1 50
e 1 51
e 1 53
e 1 54
e 1 57
e 1 58
e 1 63
e 1 64
e 1 65
e 1 66
e 1 67
e 1 68
e 1 69
e 1 71
e 1 72
e 1 73
e 1 74
e 1 75
e 1 76
e 1 77
e 1 80
e 1 81
e 1 82
e 1 83
e 1 84
e 1 85
e 1 86
e 1 87
e 1 88
e 1 89
e 1 90
e 1 91
e 1 92
e 2 6
e 2 12
e 2 21
e 2 22
e 2 23
e 2 24
e 2 25
e 2 31
e 2 38
e 2 39
e 2 40
e 2 41
e 2 42
e 2 43
e 2 44
e 2 52
e 2 53
e 2 54
e 2 55
e 2 56
e 2 57
e 2 58
e 2 59
e 2 60
e 2 61
e 2 62
e 2 70
e 2 71
e 2 72
e 2 73
e 2 74
e 2 75
e 2 76
e 2 77
e 2 78
e 2 79
e 2 80
e 2 81
e 2 82
e 2 83
e 2 84
e 2 85
e 2 86
e 2 87
e 2 88
e 2 89
e 3 7
e 3 14
e 3 15
e 3 16
e 3 21
e 3 26
e 3 30
e 3 32
e 3 33
e 3 34
e 3 35
e 3 36
e 3 37
e 3 38
e 3 39
e 3 40
e 3 45
e 3 46
e 3 47
e 3 52
e 3 53
e 3 55
e 3 56
e 3 59
e 3 60
e 3 61
e 3 62
e 3 63
e 3 64
e 3 65
e 3 66
e 3 67
e 3 68
e 3 69
e 3 71
e 3 72
e 3 73
e 3 80
e 3 81
e 3 82
e 3 83
e 3 84
e 3 85
e 3 86
e 4 8
e 4 9
e 4 10
e 4 14
e 4 15
e 4 16
e 4 17
e 4 18
e 4 22
e 4 23
e 4 24
e 4 27
e 4 28
e 4 29
e 4 32
e 4 33
e 4 38
e 4 39
e 4 40
e 4 41
e 4 42
e 4 45
e 4 46
e 4 47
e 4 48
e 4 49
e 4 54
e 4 55
e 4 56
e 4 57
e 4 58
e 4 64
e 4 65
e 4 71
e 4 72
e 4 73
e 4 74
e 4 75
e 4 81
e 4 82
e 5 6
e 5 12
e 5 21
e 5 22
e 5 23
e 5 24
e 5 38
e 5 39
e 5 40
e 5 41
e 5 42
e 5 43
e 5 44
e 5 52
e 5 55
e 5 56
e 5 59
e 5 60
e 5 61
e 5 62
e 5 70
e 5 78
e 5 79
e 6 7
e 6 14
e 6 15
e 6 16
e 6 26
e 6 30
e 6 32
e 6 33
e 6 34
e 6 35
e 6 36
e 6 37
e 6 45
e 6 46
e 6 47
e 6 63
e 6 64
e 6 65
e 6 66
e 6 67
e 6 68
e 6 69
e 7 8
e 7 9
e 7 10
e 7 11
e 7 17
e 7 18
e 7 22
e 7 23
e 7 24
e 7 25
e 7 27
e 7 28
e 7 29
e 7 41
e 7 42
e 7 48
e 7 49
e 7 54
e 7 57
e 7 58
e 7 74
e 7 75
e 8 9
e 8 10
e 8 12
e 8 13
e 8 15
e 8 16
e 8 21
e 8 23
e 8 24
e 8 26
e 8 28
e 8 29
e 8 31
e 8 39
e 8 40
e 8 46
e 8 47
e 8 53
e 8 57
e 8 58
e 8 72
e 8 73
e 9 10
e 9 12
e 9 13
e 9 14
e 9 16
e 9 21
e 9 22
e 9 24
e 9 26
e 9 27
e 9 29
e 9 31
e 9 38
e 9 40
e 9 45
e 9 47
e 9 53
e 9 54
e 9 58
e 9 71
e 9 73
e 10 12
e 10 13
e 10 14
e 10 15
e 10 21
e 10 22
e 10 23
e 10 26
e 10 27
e 10 28
e 10 31
e 10 38
e 10 39
e 10 45
e 10 46
e 10 53
e 10 54
e 10 57
e 10 71
e 10 72
e 11 14
e 11 15
e 11 16
e 11 21
e 11 30
e 11 32
e 11 33
e 11 34
e 11 35
e 11 36
e 11 37
e 11 38
e 11 39
e 11 40
e 11 52
e 11 55
e 11 56
e 11 59
e 11 60
e 11 61
e 11 62
e 12 14
e 12 15
e 12 16
e 12 17
e 12 18
e 12 27
e 12 28
e 12 29
e 12 32
e 12 33
e 12 45
e 12 46
e 12 47
e 12 48
e 12 49
e 12 64
e 12 65
e 13 14
e 13 15
e 13 16
e 13 17
e 13 18
e 13 22
e 13 23
e 13 24
e 13 32
e 13 33
e 13 38
e 13 39
e 13 40
e 13 41
e 13 42
e 13 55
e 13 56
e 14 23
e 14 24
e 14 25
e 14 28
e 14 29
e 14 31
e 14 57
e 14 58
e 15 22
e 15 24
e 15 25
e 15 27
e 15 29
e 15 31
e 15 54
e 15 58
e 16 22
e 16 23
e 16 25
e 16 27
e 16 28
e 16 31
e 16 54
e 16 57
e 17 20
e 17 21
e 17 26
e 17 31
e 17 35
e 17 44
e 17 51
e 17 53
e 17 60
e 17 67
e 17 77
e 17 84
e 18 19
e 18 21
e 18 26
e 18 31
e 18 34
e 18 43
e 18 50
e 18 53
e 18 59
e 18 66
e 18 76
e 18 83
e 19 20
e 19 33
e 19 35
e 19 42
e 19 44
e 19 49
e 19 51
e 19 56
e 19 60
e 19 65
e 19 67
e 19 75
e 19 77
e 19 82
e 19 84
e 20 32
e 20 34
e 20 41
e 20 43
e 20 48
e 20 50
e 20 55
e 20 59
e 20 64
e 20 66
e 20 74
e 20 76
e 20 81
e 20 83
e 21 27
e 21 28
e 21 29
e 21 48
e 21 49
e 22 26
e 22 28
e 22 29
e 22 46
e 22 47
e 23 26
e 23 27
e 23 29
e 23 45
e 23 47
e 24 26
e 24 27
e 24 28
e 24 45
e 24 46
e 25 30
e 25 32
e 25 33
e 25 34
e 25 35
e 25 36
e 25 37
e 26 41
e 26 42
e 27 39
e 27 40
e 28 38
e 28 40
e 29 38
e 29 39
e 30 36
e 30 37
e 30 61
e 30 62
e 30 68
e 30 69
e 30 85
e 30 86
e 31 32
e 31 33
e 32 44
e 32 51
e 32 77
e 33 43
e 33 50
e 33 76
e 34 42
e 34 44
e 34 49
e 34 51
e 34 75
e 34 77
e 35 41
e 35 43
e 35 48
e 35 50
e 35 74
e 35 76
e 36 37
e 36 52
e 36 62
e 36 63
e 36 69
e 36 80
e 36 86
e 37 52
e 37 61
e 37 63
e 37 68
e 37 80
e 37 85
e 41 51
e 41 67
e 42 50
e 42 66
e 43 49
e 43 51
e 43 65
e 43 67
e 44 48
e 44 50
e 44 64
e 44 66
e 48 60
e 49 59
e 50 56
e 50 60
e 51 55
e 51 59
e 52 68
e 52 69
e 61 63
e 61 69
e 62 63
e 62 68
e 70 78
e 70 79
e 70 88
e 70 89
e 78 79
e 78 87
e 78 89
e 79 87
e 79 88
e 90 91
e 90 92
e 91 92
